presolving:
   (0.1s) running MILP presolver
   (0.1s) MILP presolver (2 rounds): 0 aggregations, 0 fixings, 0 bound changes
(round 1, medium)     0 del vars, 1480 del conss, 1443 add conss, 0 chg bounds, 0 chg sides, 0 chg coeffs, 0 upgd conss, 0 impls, 1804 clqs
(round 2, exhaustive) 0 del vars, 1480 del conss, 1443 add conss, 0 chg bounds, 0 chg sides, 0 chg coeffs, 1443 upgd conss, 0 impls, 1804 clqs
(round 3, exhaustive) 0 del vars, 1480 del conss, 1443 add conss, 0 chg bounds, 0 chg sides, 37 chg coeffs, 1443 upgd conss, 0 impls, 1804 clqs
   (0.3s) probing: 51/1406 (3.6%) - 0 fixings, 0 aggregations, 0 implications, 0 bound changes
   (0.3s) probing aborted: 50/50 successive totally useless probings
   (0.3s) symmetry computation started: requiring (bin +, int -, cont +), (fixed: bin -, int +, cont -)
   (0.3s) no symmetry present
presolving (4 rounds: 4 fast, 4 medium, 3 exhaustive):
 0 deleted vars, 1480 deleted constraints, 1443 added constraints, 0 tightened bounds, 0 added holes, 0 changed sides, 37 changed coefficients
 0 implications, 2117 cliques
presolved problem has 1406 variables (1406 bin, 0 int, 0 impl, 0 cont) and 1443 constraints
     37 constraints of type <knapsack>
   1406 constraints of type <setppc>
Presolving Time: 0.28

 time | node  | left  |LP iter|LP it/n|mem/heur|mdpt |vars |cons |rows |cuts |sepa|confs|strbr|  dualbound   | primalbound  |  gap   | compl. 
p 0.3s|     1 |     0 |     0 |     - |  clique|   0 |1406 |1443 |1443 |   0 |  0 |   0 |   0 | 0.000000e+00 | 2.405644e+03 |    Inf | unknown
  0.7s|     1 |     0 |  1192 |     - |    19M |   0 |1406 |1503 |1443 |   0 |  0 |  60 |   0 | 9.906761e+02 | 2.405644e+03 | 142.83%| unknown
r 0.7s|     1 |     0 |  1192 |     - |shifting|   0 |1406 |1503 |1443 |   0 |  0 |  60 |   0 | 9.906761e+02 | 1.752770e+03 |  76.93%| unknown
  0.8s|     1 |     0 |  1354 |     - |    21M |   0 |1406 |1503 |1456 |  13 |  1 |  60 |   0 | 1.018856e+03 | 1.752770e+03 |  72.03%| unknown
r 0.8s|     1 |     0 |  1354 |     - |shifting|   0 |1406 |1503 |1456 |  13 |  1 |  60 |   0 | 1.018856e+03 | 1.614996e+03 |  58.51%| unknown
  0.9s|     1 |     0 |  1473 |     - |    22M |   0 |1406 |1503 |1471 |  28 |  2 |  60 |   0 | 1.030592e+03 | 1.614996e+03 |  56.71%| unknown
r 0.9s|     1 |     0 |  1473 |     - |shifting|   0 |1406 |1503 |1471 |  28 |  2 |  60 |   0 | 1.030592e+03 | 1.342059e+03 |  30.22%| unknown
  1.0s|     1 |     0 |  1552 |     - |    22M |   0 |1406 |1503 |1485 |  42 |  3 |  60 |   0 | 1.036313e+03 | 1.342059e+03 |  29.50%| unknown
  1.0s|     1 |     0 |  1658 |     - |    23M |   0 |1406 |1503 |1498 |  55 |  4 |  60 |   0 | 1.040450e+03 | 1.342059e+03 |  28.99%| unknown
  1.1s|     1 |     0 |  1769 |     - |    24M |   0 |1406 |1503 |1510 |  67 |  5 |  60 |   0 | 1.046770e+03 | 1.342059e+03 |  28.21%| unknown
  1.1s|     1 |     0 |  1856 |     - |    24M |   0 |1406 |1503 |1521 |  78 |  6 |  60 |   0 | 1.049511e+03 | 1.342059e+03 |  27.87%| unknown
  1.2s|     1 |     0 |  1921 |     - |    25M |   0 |1406 |1503 |1529 |  86 |  7 |  60 |   0 | 1.052520e+03 | 1.342059e+03 |  27.51%| unknown
  1.4s|     1 |     0 |  1963 |     - |    25M |   0 |1406 |1503 |1537 |  94 |  8 |  60 |   0 | 1.055123e+03 | 1.342059e+03 |  27.19%| unknown
  1.5s|     1 |     0 |  2064 |     - |    25M |   0 |1406 |1503 |1548 | 105 |  9 |  60 |   0 | 1.057729e+03 | 1.342059e+03 |  26.88%| unknown
  1.6s|     1 |     0 |  2149 |     - |    25M |   0 |1406 |1503 |1554 | 111 | 10 |  60 |   0 | 1.060318e+03 | 1.342059e+03 |  26.57%| unknown
 time | node  | left  |LP iter|LP it/n|mem/heur|mdpt |vars |cons |rows |cuts |sepa|confs|strbr|  dualbound   | primalbound  |  gap   | compl. 
  1.7s|     1 |     0 |  2203 |     - |    26M |   0 |1406 |1503 |1559 | 116 | 11 |  60 |   0 | 1.061452e+03 | 1.342059e+03 |  26.44%| unknown
  1.7s|     1 |     0 |  2251 |     - |    26M |   0 |1406 |1503 |1563 | 120 | 12 |  60 |   0 | 1.061844e+03 | 1.342059e+03 |  26.39%| unknown
  1.8s|     1 |     0 |  2317 |     - |    26M |   0 |1406 |1503 |1569 | 126 | 13 |  60 |   0 | 1.062697e+03 | 1.342059e+03 |  26.29%| unknown
  1.9s|     1 |     0 |  2368 |     - |    26M |   0 |1406 |1503 |1574 | 131 | 14 |  60 |   0 | 1.062976e+03 | 1.342059e+03 |  26.25%| unknown
  1.9s|     1 |     0 |  2384 |     - |    26M |   0 |1406 |1503 |1579 | 136 | 15 |  60 |   0 | 1.063123e+03 | 1.342059e+03 |  26.24%| unknown
  2.0s|     1 |     0 |  2453 |     - |    26M |   0 |1406 |1503 |1575 | 145 | 16 |  60 |   0 | 1.064892e+03 | 1.342059e+03 |  26.03%| unknown
  2.0s|     1 |     0 |  2521 |     - |    27M |   0 |1406 |1503 |1583 | 153 | 17 |  60 |   0 | 1.065727e+03 | 1.342059e+03 |  25.93%| unknown
  2.1s|     1 |     0 |  2543 |     - |    27M |   0 |1406 |1503 |1587 | 157 | 18 |  60 |   0 | 1.065882e+03 | 1.342059e+03 |  25.91%| unknown
  2.1s|     1 |     0 |  2592 |     - |    27M |   0 |1406 |1503 |1593 | 163 | 19 |  60 |   0 | 1.066103e+03 | 1.342059e+03 |  25.88%| unknown
  2.2s|     1 |     0 |  2662 |     - |    27M |   0 |1406 |1503 |1603 | 173 | 20 |  60 |   0 | 1.067586e+03 | 1.342059e+03 |  25.71%| unknown
  2.2s|     1 |     0 |  2694 |     - |    27M |   0 |1406 |1503 |1608 | 178 | 21 |  60 |   0 | 1.067991e+03 | 1.342059e+03 |  25.66%| unknown
  2.3s|     1 |     0 |  2709 |     - |    27M |   0 |1406 |1503 |1596 | 181 | 22 |  60 |   0 | 1.068220e+03 | 1.342059e+03 |  25.64%| unknown
  2.3s|     1 |     0 |  2720 |     - |    27M |   0 |1406 |1503 |1599 | 184 | 23 |  60 |   0 | 1.068420e+03 | 1.342059e+03 |  25.61%| unknown
  2.3s|     1 |     0 |  2760 |     - |    27M |   0 |1406 |1503 |1605 | 190 | 24 |  60 |   0 | 1.068758e+03 | 1.342059e+03 |  25.57%| unknown
  2.4s|     1 |     0 |  2783 |     - |    27M |   0 |1406 |1503 |1607 | 192 | 25 |  60 |   0 | 1.068837e+03 | 1.342059e+03 |  25.56%| unknown
 time | node  | left  |LP iter|LP it/n|mem/heur|mdpt |vars |cons |rows |cuts |sepa|confs|strbr|  dualbound   | primalbound  |  gap   | compl. 
  2.4s|     1 |     0 |  2795 |     - |    27M |   0 |1406 |1503 |1610 | 195 | 27 |  60 |   0 | 1.068928e+03 | 1.342059e+03 |  25.55%| unknown
o 4.0s|     1 |     0 |  8789 |     - |feaspump|   0 |1406 |1506 |1610 | 195 | 29 |  70 |   0 | 1.068928e+03 | 1.183763e+03 |  10.74%| unknown
L 5.2s|     1 |     0 |  9745 |     - |    rens|   0 |1406 |1506 |1610 | 195 | 29 |  70 |   0 | 1.068928e+03 | 1.132048e+03 |   5.90%| unknown
  5.3s|     1 |     0 |  9745 |     - |    28M |   0 |1406 |1506 |1610 | 195 | 29 |  70 |   0 | 1.068928e+03 | 1.132048e+03 |   5.90%| unknown
  5.3s|     1 |     0 |  9745 |     - |    28M |   0 |1406 |1506 |1556 | 195 | 29 |  70 |   0 | 1.068928e+03 | 1.132048e+03 |   5.90%| unknown
  5.3s|     1 |     0 |  9767 |     - |    28M |   0 |1406 |1452 |1558 | 197 | 30 |  70 |   0 | 1.068999e+03 | 1.132048e+03 |   5.90%| unknown
  7.0s|     1 |     2 |  9767 |     - |    28M |   0 |1406 |1452 |1558 | 197 | 31 |  70 |  28 | 1.071649e+03 | 1.132048e+03 |   5.64%| unknown
(run 1, node 1) restarting after 54 global fixings of integer variables

(restart) converted 105 cuts from the global cut pool into linear constraints

presolving:
(round 1, fast)       54 del vars, 11 del conss, 0 add conss, 0 chg bounds, 1 chg sides, 28 chg coeffs, 0 upgd conss, 0 impls, 2244 clqs
(round 2, medium)     54 del vars, 11 del conss, 1 add conss, 0 chg bounds, 2 chg sides, 33 chg coeffs, 0 upgd conss, 0 impls, 2244 clqs
(round 3, exhaustive) 54 del vars, 13 del conss, 1 add conss, 0 chg bounds, 3 chg sides, 33 chg coeffs, 0 upgd conss, 0 impls, 2244 clqs
(round 4, exhaustive) 54 del vars, 13 del conss, 1 add conss, 0 chg bounds, 3 chg sides, 33 chg coeffs, 101 upgd conss, 0 impls, 2244 clqs
(round 5, fast)       54 del vars, 13 del conss, 1 add conss, 0 chg bounds, 9 chg sides, 68 chg coeffs, 101 upgd conss, 0 impls, 2244 clqs
(round 6, medium)     54 del vars, 17 del conss, 9 add conss, 0 chg bounds, 17 chg sides, 124 chg coeffs, 101 upgd conss, 0 impls, 2244 clqs
(round 7, fast)       54 del vars, 18 del conss, 10 add conss, 0 chg bounds, 19 chg sides, 132 chg coeffs, 101 upgd conss, 0 impls, 2244 clqs
(round 8, exhaustive) 54 del vars, 19 del conss, 10 add conss, 0 chg bounds, 19 chg sides, 161 chg coeffs, 101 upgd conss, 0 impls, 2244 clqs
(round 9, exhaustive) 54 del vars, 36 del conss, 10 add conss, 0 chg bounds, 19 chg sides, 167 chg coeffs, 101 upgd conss, 0 impls, 2244 clqs
presolving (10 rounds: 10 fast, 7 medium, 5 exhaustive):
 54 deleted vars, 36 deleted constraints, 10 added constraints, 0 tightened bounds, 0 added holes, 19 changed sides, 176 changed coefficients
 0 implications, 2244 cliques
presolved problem has 1352 variables (1352 bin, 0 int, 0 impl, 0 cont) and 1531 constraints
    123 constraints of type <knapsack>
   1371 constraints of type <setppc>
      2 constraints of type <linear>
     35 constraints of type <logicor>
Presolving Time: 0.34
transformed 6/6 original solutions to the transformed problem space

 time | node  | left  |LP iter|LP it/n|mem/heur|mdpt |vars |cons |rows |cuts |sepa|confs|strbr|  dualbound   | primalbound  |  gap   | compl. 
  7.3s|     1 |     0 | 11261 |     - |    29M |   0 |1352 |1531 |1496 |   0 |  0 |  70 |  28 | 1.071649e+03 | 1.132048e+03 |   5.64%| unknown
  7.4s|     1 |     0 | 11435 |     - |    30M |   0 |1352 |1531 |1508 |  12 |  1 |  70 |  28 | 1.071649e+03 | 1.132048e+03 |   5.64%| unknown
  7.6s|     1 |     0 | 11604 |     - |    30M |   0 |1352 |1531 |1522 |  26 |  2 |  70 |  28 | 1.071649e+03 | 1.132048e+03 |   5.64%| unknown
  7.7s|     1 |     0 | 11734 |     - |    30M |   0 |1352 |1531 |1534 |  38 |  3 |  70 |  28 | 1.071649e+03 | 1.132048e+03 |   5.64%| unknown
  7.7s|     1 |     0 | 11908 |     - |    30M |   0 |1352 |1531 |1543 |  47 |  4 |  70 |  28 | 1.071649e+03 | 1.132048e+03 |   5.64%| unknown
  7.8s|     1 |     0 | 12001 |     - |    30M |   0 |1352 |1531 |1553 |  57 |  5 |  70 |  28 | 1.071649e+03 | 1.132048e+03 |   5.64%| unknown
  7.8s|     1 |     0 | 12001 |     - |    30M |   0 |1352 |1531 |1550 |  57 |  5 |  70 |  28 | 1.071649e+03 | 1.132048e+03 |   5.64%| unknown
  7.9s|     1 |     0 | 12081 |     - |    31M |   0 |1352 |1528 |1558 |  65 |  6 |  70 |  28 | 1.071649e+03 | 1.132048e+03 |   5.64%| unknown
  7.9s|     1 |     0 | 12081 |     - |    31M |   0 |1352 |1528 |1558 |  65 |  6 |  70 |  28 | 1.071649e+03 | 1.132048e+03 |   5.64%| unknown
  8.0s|     1 |     0 | 12206 |     - |    31M |   0 |1352 |1528 |1567 |  74 |  7 |  70 |  28 | 1.071649e+03 | 1.132048e+03 |   5.64%| unknown
  8.0s|     1 |     0 | 12206 |     - |    31M |   0 |1352 |1528 |1565 |  74 |  7 |  70 |  28 | 1.071649e+03 | 1.132048e+03 |   5.64%| unknown
  8.1s|     1 |     0 | 12279 |     - |    31M |   0 |1352 |1526 |1572 |  81 |  8 |  70 |  28 | 1.071649e+03 | 1.132048e+03 |   5.64%| unknown
  8.2s|     1 |     0 | 12312 |     - |    31M |   0 |1352 |1526 |1579 |  88 |  9 |  70 |  28 | 1.071649e+03 | 1.132048e+03 |   5.64%| unknown
  8.3s|     1 |     0 | 12360 |     - |    31M |   0 |1352 |1526 |1587 |  96 | 10 |  70 |  28 | 1.071649e+03 | 1.132048e+03 |   5.64%| unknown
  8.3s|     1 |     0 | 12360 |     - |    31M |   0 |1352 |1526 |1586 |  96 | 10 |  70 |  28 | 1.071649e+03 | 1.132048e+03 |   5.64%| unknown
 time | node  | left  |LP iter|LP it/n|mem/heur|mdpt |vars |cons |rows |cuts |sepa|confs|strbr|  dualbound   | primalbound  |  gap   | compl. 
  8.4s|     1 |     0 | 12455 |     - |    31M |   0 |1352 |1525 |1589 |  99 | 11 |  70 |  28 | 1.072532e+03 | 1.132048e+03 |   5.55%| unknown
  8.4s|     1 |     0 | 12455 |     - |    31M |   0 |1352 |1525 |1586 |  99 | 11 |  70 |  28 | 1.072532e+03 | 1.132048e+03 |   5.55%| unknown
  8.5s|     1 |     0 | 12549 |     - |    31M |   0 |1352 |1522 |1593 | 106 | 12 |  70 |  28 | 1.073411e+03 | 1.132048e+03 |   5.46%| unknown
  8.5s|     1 |     0 | 12549 |     - |    32M |   0 |1352 |1522 |1591 | 106 | 12 |  70 |  28 | 1.073411e+03 | 1.132048e+03 |   5.46%| unknown
  8.6s|     1 |     0 | 12609 |     - |    32M |   0 |1352 |1520 |1598 | 113 | 13 |  70 |  28 | 1.074192e+03 | 1.132048e+03 |   5.39%| unknown
  8.6s|     1 |     0 | 12609 |     - |    32M |   0 |1352 |1520 |1596 | 113 | 13 |  70 |  28 | 1.074192e+03 | 1.132048e+03 |   5.39%| unknown
  8.7s|     1 |     0 | 12641 |     - |    32M |   0 |1352 |1518 |1557 | 117 | 14 |  70 |  28 | 1.074458e+03 | 1.132048e+03 |   5.36%| unknown
  8.8s|     1 |     0 | 12652 |     - |    32M |   0 |1352 |1518 |1560 | 120 | 15 |  70 |  28 | 1.074485e+03 | 1.132048e+03 |   5.36%| unknown
  8.9s|     1 |     0 | 12670 |     - |    32M |   0 |1352 |1518 |1562 | 122 | 16 |  70 |  28 | 1.074512e+03 | 1.132048e+03 |   5.35%| unknown
  8.9s|     1 |     0 | 12682 |     - |    32M |   0 |1352 |1518 |1564 | 124 | 18 |  70 |  28 | 1.074621e+03 | 1.132048e+03 |   5.34%| unknown
  8.9s|     1 |     0 | 12698 |     - |    32M |   0 |1352 |1518 |1566 | 126 | 19 |  70 |  28 | 1.074676e+03 | 1.132048e+03 |   5.34%| unknown
  9.0s|     1 |     0 | 12698 |     - |    32M |   0 |1352 |1518 |1565 | 126 | 19 |  70 |  28 | 1.074676e+03 | 1.132048e+03 |   5.34%| unknown
  9.0s|     1 |     0 | 12718 |     - |    32M |   0 |1352 |1517 |1567 | 128 | 21 |  70 |  28 | 1.074733e+03 | 1.132048e+03 |   5.33%| unknown
  9.0s|     1 |     0 | 12748 |     - |    33M |   0 |1352 |1517 |1526 | 132 | 22 |  70 |  28 | 1.074788e+03 | 1.132048e+03 |   5.33%| unknown
  9.1s|     1 |     0 | 12757 |     - |    33M |   0 |1352 |1517 |1527 | 133 | 23 |  70 |  28 | 1.074837e+03 | 1.132048e+03 |   5.32%| unknown
 time | node  | left  |LP iter|LP it/n|mem/heur|mdpt |vars |cons |rows |cuts |sepa|confs|strbr|  dualbound   | primalbound  |  gap   | compl. 
  9.1s|     1 |     0 | 12815 |     - |    33M |   0 |1352 |1517 |1528 | 134 | 24 |  70 |  28 | 1.075207e+03 | 1.132048e+03 |   5.29%| unknown
  9.1s|     1 |     0 | 12815 |     - |    33M |   0 |1352 |1517 |1527 | 134 | 24 |  70 |  28 | 1.075207e+03 | 1.132048e+03 |   5.29%| unknown
  9.1s|     1 |     0 | 12846 |     - |    33M |   0 |1352 |1516 |1529 | 136 | 25 |  70 |  28 | 1.075300e+03 | 1.132048e+03 |   5.28%| unknown
  9.2s|     1 |     0 | 12846 |     - |    33M |   0 |1352 |1516 |1526 | 136 | 25 |  70 |  28 | 1.075300e+03 | 1.132048e+03 |   5.28%| unknown
  9.2s|     1 |     0 | 12853 |     - |    33M |   0 |1352 |1513 |1527 | 137 | 26 |  70 |  28 | 1.075312e+03 | 1.132048e+03 |   5.28%| unknown
L10.1s|     1 |     0 | 13714 |     - |    rens|   0 |1352 |1530 |1527 | 137 | 28 |  87 |  28 | 1.075312e+03 | 1.129072e+03 |   5.00%| unknown
 10.1s|     1 |     0 | 13714 |     - |    33M |   0 |1352 |1530 |1527 | 137 | 28 |  87 |  28 | 1.075312e+03 | 1.129072e+03 |   5.00%| unknown
 10.1s|     1 |     0 | 13714 |     - |    33M |   0 |1352 |1530 |1516 | 137 | 28 |  87 |  28 | 1.075312e+03 | 1.129072e+03 |   5.00%| unknown
 10.2s|     1 |     0 | 13725 |     - |    33M |   0 |1352 |1519 |1519 | 140 | 29 |  87 |  28 | 1.075346e+03 | 1.129072e+03 |   5.00%| unknown
 10.2s|     1 |     0 | 13760 |     - |    33M |   0 |1352 |1519 |1520 | 141 | 30 |  87 |  28 | 1.075434e+03 | 1.129072e+03 |   4.99%| unknown
 11.3s|     1 |     2 | 13760 |     - |    33M |   0 |1352 |1519 |1520 | 141 | 30 |  87 |  47 | 1.076390e+03 | 1.129072e+03 |   4.89%| unknown
 38.5s|   100 |    51 | 23340 | 174.1 |    39M |  19 |1352 |1803 |1460 | 268 |  1 | 371 | 930 | 1.076584e+03 | 1.129072e+03 |   4.88%|   3.46%
 43.0s|   200 |    97 | 29336 | 117.0 |    43M |  20 |1352 |1888 |1463 | 355 |  2 | 456 |1050 | 1.076584e+03 | 1.129072e+03 |   4.88%|   3.49%
L43.1s|   201 |    98 | 29398 | 116.7 |    rins|  20 |1352 |1888 |1463 | 355 |  1 | 456 |1050 | 1.076584e+03 | 1.129009e+03 |   4.87%|   3.49%
 47.4s|   300 |   145 | 34569 |  95.5 |    44M |  26 |1352 |1954 |1466 | 425 |  1 | 522 |1153 | 1.076584e+03 | 1.129009e+03 |   4.87%|   4.76%
 time | node  | left  |LP iter|LP it/n|mem/heur|mdpt |vars |cons |rows |cuts |sepa|confs|strbr|  dualbound   | primalbound  |  gap   | compl. 
*50.1s|   379 |    18 | 40840 |  92.1 |    LP  |  26 |1352 |2004 |1469 | 477 |  1 | 572 |1208 | 1.076584e+03 | 1.086269e+03 |   0.90%|  11.88%
 50.4s|   400 |    21 | 42046 |  90.3 |    44M |  26 |1352 |1960 |1460 | 477 |  1 | 572 |1211 | 1.077124e+03 | 1.086269e+03 |   0.85%|  15.95%
 52.5s|   500 |    27 | 46930 |  82.0 |    45M |  26 |1352 |1957 |1462 | 528 |  1 | 580 |1225 | 1.077454e+03 | 1.086269e+03 |   0.82%|  20.90%
 54.7s|   600 |    21 | 51676 |  76.2 |    45M |  26 |1352 |1971 |1471 | 572 |  1 | 594 |1234 | 1.078568e+03 | 1.086269e+03 |   0.71%|  46.86%
*55.2s|   641 |    15 | 53215 |  73.8 |    LP  |  26 |1352 |1974 |1460 | 572 |  1 | 597 |1236 | 1.078833e+03 | 1.084465e+03 |   0.52%|  61.86%
 56.3s|   700 |    10 | 55625 |  71.0 |    45M |  26 |1352 |1952 |1461 | 582 |  1 | 601 |1239 | 1.079087e+03 | 1.084465e+03 |   0.50%|  77.23%

SCIP Status        : problem is solved [optimal solution found]
Solving Time (sec) : 57.41
Solving Nodes      : 762 (total of 763 nodes in 2 runs)
Primal Bound       : +1.08446476234218e+03 (34 solutions)
Dual Bound         : +1.08446476234218e+03
Gap                : 0.00 %
Solve Status: optimal
Solve Time: 57.42 seconds
